236
1 1 2
2 1 4
3 1 7
4 1 9
5 1 13
6 1 15
7 1 18
8 1 20
9 1 25
10 1 27
11 1 30
12 1 32
13 1 36
14 1 38
15 1 41
16 1 43
17 2 3
18 2 6
19 2 8
20 2 12
21 2 14
22 2 17
23 2 19
24 2 24
25 2 26
26 2 29
27 2 31
28 2 35
29 2 37
30 2 40
31 2 42
32 3 5
33 3 7
34 3 10
35 3 13
36 3 16
37 3 18
38 3 21
39 3 25
40 3 28
41 3 30
42 3 33
43 3 36
44 3 39
45 3 41
46 3 44
47 4 5
48 4 6
49 4 10
50 4 12
51 4 16
52 4 17
53 4 21
54 4 24
55 4 28
56 4 29
57 4 33
58 4 35
59 4 39
60 4 40
61 4 44
62 5 8
63 5 9
64 5 14
65 5 15
66 5 19
67 5 20
68 5 26
69 5 27
70 5 31
71 5 32
72 5 37
73 5 38
74 5 42
75 5 43
76 6 11
77 6 13
78 6 15
79 6 22
80 6 25
81 6 27
82 6 34
83 6 36
84 6 38
85 6 45
86 7 11
87 7 12
88 7 14
89 7 22
90 7 24
91 7 26
92 7 34
93 7 35
94 7 37
95 7 45
96 8 11
97 8 13
98 8 16
99 8 22
100 8 25
101 8 28
102 8 34
103 8 36
104 8 39
105 8 45
106 9 11
107 9 12
108 9 16
109 9 22
110 9 24
111 9 28
112 9 34
113 9 35
114 9 39
115 9 45
116 10 11
117 10 14
118 10 15
119 10 22
120 10 26
121 10 27
122 10 34
123 10 37
124 10 38
125 10 45
126 11 17
127 11 18
128 11 19
129 11 20
130 11 21
131 11 29
132 11 30
133 11 31
134 11 32
135 11 33
136 11 40
137 11 41
138 11 42
139 11 43
140 11 44
141 12 23
142 12 25
143 12 27
144 12 30
145 12 32
146 12 46
147 13 23
148 13 24
149 13 26
150 13 29
151 13 31
152 13 46
153 14 23
154 14 25
155 14 28
156 14 30
157 14 33
158 14 46
159 15 23
160 15 24
161 15 28
162 15 29
163 15 33
164 15 46
165 16 23
166 16 26
167 16 27
168 16 31
169 16 32
170 16 46
171 17 23
172 17 25
173 17 27
174 17 34
175 17 46
176 18 23
177 18 24
178 18 26
179 18 34
180 18 46
181 19 23
182 19 25
183 19 28
184 19 34
185 19 46
186 20 23
187 20 24
188 20 28
189 20 34
190 20 46
191 21 23
192 21 26
193 21 27
194 21 34
195 21 46
196 22 23
197 22 29
198 22 30
199 22 31
200 22 32
201 22 33
202 22 46
203 23 35
204 23 36
205 23 37
206 23 38
207 23 39
208 23 40
209 23 41
210 23 42
211 23 43
212 23 44
213 23 45
214 24 47
215 25 47
216 26 47
217 27 47
218 28 47
219 29 47
220 30 47
221 31 47
222 32 47
223 33 47
224 34 47
225 35 47
226 36 47
227 37 47
228 38 47
229 39 47
230 40 47
231 41 47
232 42 47
233 43 47
234 44 47
235 45 47
236 46 47